Route #1: 93 99 100 92 4
Route #2: 20 24 52 50 51 45 42 43 48
Route #3: 76 71 70 73 80 79 96 0 18 19 16 14 12
Route #4: 44 60 59 54 72 61 0 5 75 2 11 10 8 0 63
Route #5: 67 62 74 64 66 0 69 68 65 35 38 39 36 0 21 23 26 28 25 0 86 85 81 78 77
Route #6: 29 34 37 31 32 0 15 17 13 9 0 98 95 94 97 1
Route #7: 49 55 53 56 58 0 47 46 40 57 41 0 89 7 3 91 90
Route #8: 22 27 30 6 33 0 88 84 82 83 87
Cost: 15796
Optimal: True
